p cnf 120 71
1 -26 0
2 -27 0
3 -28 0
4 -29 0
5 -30 0
6 -101 0
7 -102 0
8 -103 0
9 -104 0
10 -105 0
11 -51 0
12 -52 0
13 -53 0
14 -54 0
15 -55 0
31 -36 0
32 -37 0
33 -38 0
34 -39 0
31 -56 0
32 -57 0
33 -58 0
34 -59 0
35 -60 0
76 -106 0
77 -107 0
78 -108 0
79 -109 0
80 -110 0
41 -81 0
42 -82 0
43 -83 0
44 -84 0
45 -85 0
-61 -62 63 -64 -65 0
16 0
-86 112 0
-87 111 0
-87 113 0
-88 112 0
-88 114 0
-89 113 0
-89 115 0
-90 114 0
-81 117 0
-82 116 0
-82 118 0
-83 117 0
-83 119 0
-84 118 0
-84 120 0
-85 119 0
91 -66 0
92 -67 0
93 -68 0
94 -69 0
95 -70 0
21 -96 0
22 -97 0
23 -98 0
24 -99 0
25 -100 0
16 -47 0
-86 72 0
-87 71 0 
-87 73 0   
-88 72 0    
-88 74 0   
-89 73 0   
-89 75 0      
-90 74 0 